capacidades = [500, 1500, 500];
costos = [70, 10, 30];

n_clientes = 5;
n_dias = 5;

d = [|800, 1000, 1000, 230, 500|
      200, 150, 350, 420, 0|
      100, 0, 350, 420, 0|
      50, 100, 350, 420, 0|
      50, 150, 350, 420, 0|];

limit_dias = 4;
porcentaje = 0.9;